************************************************************************
file with basedata            : md323_.bas
initial value random generator: 731688320
************************************************************************
projects                      :  1
jobs (incl. supersource/sink ):  22
horizon                       :  155
RESOURCES
  - renewable                 :  2   R
  - nonrenewable              :  2   N
  - doubly constrained        :  0   D
************************************************************************
PROJECT INFORMATION:
pronr.  #jobs rel.date duedate tardcost  MPM-Time
    1     20      0       18       15       18
************************************************************************
PRECEDENCE RELATIONS:
jobnr.    #modes  #successors   successors
   1        1          3           2   3   4
   2        3          3           6   9  14
   3        3          3           5   8  11
   4        3          3          12  16  20
   5        3          2           9  17
   6        3          3           7  12  18
   7        3          2           8  17
   8        3          2          15  16
   9        3          3          10  13  16
  10        3          2          12  20
  11        3          3          14  15  19
  12        3          2          19  21
  13        3          1          15
  14        3          1          18
  15        3          1          21
  16        3          1          21
  17        3          1          19
  18        3          1          20
  19        3          1          22
  20        3          1          22
  21        3          1          22
  22        1          0        
************************************************************************
REQUESTS/DURATIONS:
jobnr. mode duration  R 1  R 2  N 1  N 2
------------------------------------------------------------------------
  1      1     0       0    0    0    0
  2      1     2       0    7    0    9
         2     8       7    0    0    9
         3    10       6    0    0    9
  3      1     1       0    2    4    0
         2     5       0    2    0    3
         3     7       0    1    4    0
  4      1     4       9    0    0    5
         2     6       7    0   10    0
         3    10       0    2    0    3
  5      1     2       0    3    0    2
         2     3       0    3    9    0
         3     5       0    2    8    0
  6      1     1       0    4    9    0
         2     6       0    4    8    0
         3     7       0    2    6    0
  7      1     1       0   10    0   10
         2     6       0    9    0    2
         3    10       0    9    5    0
  8      1     1       7    0    9    0
         2     2       5    0    5    0
         3     3       4    0    0    6
  9      1     5       0    9    0    3
         2     7       0    9    0    2
         3    10       0    7    0    2
 10      1     2       0    6    0   10
         2     3       0    5    0    4
         3     3       0    3    0    7
 11      1     3       0    4    0    4
         2     5       3    0    0    2
         3     6       1    0    3    0
 12      1     3       0    4    0    9
         2     5       4    0    0    8
         3     6       0    3    3    0
 13      1     2       7    0    0    5
         2     6       6    0    0    4
         3    10       0    6    0    2
 14      1     3       6    0    0    4
         2     7       2    0    5    0
         3     8       0    2    4    0
 15      1     1       0    1    5    0
         2     3       3    0    5    0
         3     4       2    0    2    0
 16      1     4       0    4    3    0
         2     8       0    3    0    3
         3     8       0    1    3    0
 17      1     5       7    0    0    7
         2     9       0    9    1    0
         3    10       0    8    0    4
 18      1    10       1    0    9    0
         2    10       0    2    0    3
         3    10       5    0    0    5
 19      1     4       3    0    0    5
         2     6       1    0    0    4
         3    10       0    4    2    0
 20      1     1       0    5    5    0
         2     7       6    0    3    0
         3     9       3    0    0    5
 21      1     2       7    0    8    0
         2     8       6    0    4    0
         3     9       3    0    2    0
 22      1     0       0    0    0    0
************************************************************************
RESOURCEAVAILABILITIES:
  R 1  R 2  N 1  N 2
   16   21   30   37
************************************************************************
MAXIMAL LAGS:
from  to  type  delay
    1   12   ES      0
    1    2   ES      0
    2   12   ES      0
    1    3   ES      0
    3   12   ES      0
    1    4   ES      0
    4   12   ES      0
    1    5   ES      0
    5   12   ES      0
    1    6   ES      0
    6   12   ES      0
    1    7   ES      0
    7   12   ES      0
    1    8   ES      0
    8   12   ES      0
    1    9   ES      0
    9   12   ES      0
    1   10   ES      0
   10   12   ES      0
    1   11   ES      0
   11   12   ES      0
    1   12   ES      0
    2    6   SS      0
    2    6   SE     -4
    2    6   ES      7
    2    6   EE      1
    2    9   SS      2
    2    9   SE     -3
    2    9   ES     -9
    2    9   EE      6
    2   14   SS      7
    2   14   SE    -10
   14    2   SE      0
    2   14   ES      0
    2   14   EE    -11
    3    5   SS     -2
    3    5   SE     10
    3    5   ES      9
    3    5   EE     12
    3    8   SS     -5
    3    8   SE      7
    3    8   ES      9
    3    8   EE    -12
    3   11   SS      0
    3   11   SE     -4
    3   11   ES      6
    3   11   EE    -11
    4   16   SS      6
    4   16   SE     11
    4   16   ES     10
    4   16   EE     12
    4   20   SS      3
    4   20   SE      8
    4   20   ES    -12
    4   20   EE     -5
    5    9   SS     -3
    5    9   SE     -8
    5    9   ES     -2
    5    9   EE      9
    5   17   SS     -9
    5   17   SE     10
    5   17   ES      7
    5   17   EE      2
    6    7   SS      9
    6    7   SE    -11
    6    7   ES     -9
    6    7   EE      5
    6   18   SS    -10
    6   18   SE     11
    6   18   ES     -1
    6   18   EE      5
    7    8   SS      6
    7    8   SE     -9
    7    8   ES     -6
    7    8   EE      0
    7   17   SS      5
    7   17   SE     -8
    7   17   ES      6
    7   17   EE      0
    8   15   SS      2
    8   15   SE    -12
    8   15   ES      2
    8   15   EE     -4
    8   16   SS     -7
    8   16   SE     -9
    8   16   ES     -2
    8   16   EE     -5
    9   10   SS    -10
    9   10   SE      7
    9   10   ES     -5
    9   10   EE      8
    9   13   SS      0
    9   13   SE     11
    9   13   ES     -8
    9   13   EE     12
    9   16   SS     -2
    9   16   SE     -7
    9   16   ES      0
    9   16   EE    -12
   10   20   SS     -8
   10   20   SE     -7
   10   20   ES     -9
   10   20   EE      1
   11   14   SS      6
   11   14   SE     11
   11   14   ES     12
   11   14   EE    -12
   11   15   SS      5
   11   15   SE     10
   11   15   ES      4
   11   15   EE      2
   11   19   SS     -1
   11   19   SE     -4
   11   19   ES      4
   11   19   EE    -12
   12   19   SS     -8
   12   19   SE      7
   12   19   ES     -5
   12   19   EE     -6
   12   21   SS     12
   12   21   SE     -1
   12   21   ES      5
   12   21   EE     -5
   13   15   SS     12
   13   15   SE      4
   13   15   ES     -3
   13   15   EE     -6
   14   18   SS      9
   14   18   SE      7
   14   18   ES      8
   14   18   EE    -10
   15   21   SS    -12
   15   21   SE      1
   15   21   ES     -1
   15   21   EE      2
   16   21   SS     -5
   16   21   SE     -2
   16   21   ES    -10
   16   21   EE      3
   17   19   SS     -3
   17   19   SE     -2
   17   19   ES     -4
   17   19   EE      0
   18   20   SS      6
   18   20   SE     -6
   18   20   ES     12
   18   20   EE     10
   19   22   SS     10
   19   22   SE     -1
   19   22   ES     -9
   19   22   EE    -12
   20   22   SS     -7
   20   22   SE     11
   20   22   ES    -10
   20   22   EE     -3
   21   22   SS    -11
   21   22   SE     12
   21   22   ES    -10
   21   22   EE     -8
************************************************************************
